words_hard_train/4680.qaiger
aag 17 8 0 1 9
2
4
12
16
18
22
26
30
34
6 2 4
8 3 5
10 7 9
14 10 13
20 17 19
24 21 22
28 25 27
32 29 30
34 14 33
i0 2 y1[7]
i1 1 x2[0]
i2 2 y1[6]
i3 2 y1[1]
i4 2 y1[2]
i5 2 y1[3]
i6 2 y1[4]
i7 2 y1[5]
o0 bv[0]
c
simplified
  >
    subtract
      1
      -169
    subtract
      2 y1
      << 7
        1 x2
