words_hard_train/4680.qaiger.qdimacs
p cnf 17 28
a 2 0
e 1 3 4 5 6 7 8 9 10 11 12 13 14 15 16 17 0
-1 -2 3 0
1 -3 0
2 -3 0
1 2 4 0
-1 -4 0
-2 -4 0
3 4 5 0
-3 -5 0
-4 -5 0
-5 6 7 0
5 -7 0
-6 -7 0
8 9 10 0
-8 -10 0
-9 -10 0
10 -11 12 0
-10 -12 0
11 -12 0
12 13 14 0
-12 -14 0
-13 -14 0
14 -15 16 0
-14 -16 0
15 -16 0
-7 16 17 0
7 -17 0
-16 -17 0
17 0
